N=30;
start=[|
0, 6, 26, 0, 0, 16, 2, 14, 5, 19, 7, 0, 0, 0, 0, 8, 9, 0, 13, 22, 0, 0, 0, 21, 11, 3, 12, 0, 0, 29|
0, 2, 0, 19, 0, 12, 21, 0, 1, 14, 0, 0, 0, 0, 4, 0, 0, 23, 0, 18, 17, 0, 3, 8, 16, 0, 11, 24, 22, 13|
24, 26, 0, 0, 2, 0, 0, 0, 27, 17, 0, 8, 0, 20, 12, 29, 28, 0, 18, 0, 0, 21, 25, 0, 1, 30, 0, 0, 11, 22|
0, 0, 5, 16, 0, 27, 1, 0, 0, 3, 0, 11, 2, 0, 13, 28, 4, 0, 0, 19, 20, 10, 0, 29, 0, 22, 14, 0, 17, 0|
3, 0, 0, 22, 16, 0, 15, 0, 0, 23, 24, 27, 30, 1, 0, 18, 12, 0, 0, 25, 14, 28, 5, 0, 0, 8, 20, 6, 0, 0|
30, 0, 0, 0, 10, 15, 0, 1, 0, 21, 25, 0, 24, 22, 0, 20, 0, 0, 0, 0, 8, 26, 0, 27, 7, 0, 3, 2, 9, 12|
0, 0, 2, 11, 0, 30, 0, 0, 16, 1, 0, 21, 4, 6, 0, 25, 0, 0, 0, 27, 24, 14, 0, 3, 12, 23, 0, 0, 19, 18|
29, 8, 0, 28, 12, 0, 0, 25, 21, 0, 0, 2, 11, 0, 0, 0, 26, 22, 6, 17, 0, 9, 19, 20, 0, 0, 0, 3, 18, 30|
0, 5, 28, 0, 3, 0, 19, 0, 23, 25, 18, 0, 0, 30, 0, 17, 6, 13, 0, 16, 0, 1, 20, 0, 26, 0, 0, 4, 0, 24|
18, 0, 15, 4, 6, 5, 0, 16, 19, 8, 0, 3, 27, 11, 10, 0, 21, 0, 9, 0, 22, 0, 13, 0, 0, 20, 0, 0, 0, 1|
9, 14, 3, 0, 0, 8, 0, 21, 29, 0, 0, 5, 0, 26, 15, 0, 2, 16, 0, 0, 0, 11, 7, 0, 17, 0, 1, 0, 25, 10|
0, 0, 1, 0, 0, 29, 0, 10, 0, 24, 5, 7, 0, 17, 25, 23, 14, 0, 0, 2, 6, 0, 15, 0, 9, 0, 16, 11, 0, 8|
6, 7, 0, 0, 22, 2, 0, 0, 25, 0, 0, 14, 12, 24, 5, 0, 0, 19, 29, 4, 16, 0, 28, 17, 0, 26, 10, 9, 0, 0|
0, 13, 0, 5, 27, 0, 3, 30, 7, 0, 19, 26, 0, 0, 23, 15, 29, 14, 21, 12, 0, 6, 0, 0, 0, 0, 0, 10, 0, 16|
0, 25, 30, 17, 0, 0, 18, 11, 13, 0, 4, 6, 0, 0, 0, 27, 23, 5, 20, 0, 0, 0, 2, 26, 0, 14, 22, 16, 0, 0|
0, 16, 13, 0, 0, 0, 11, 2, 9, 0, 17, 0, 15, 0, 8, 0, 3, 1, 4, 24, 19, 20, 0, 0, 0, 21, 0, 25, 0, 5|
11, 0, 0, 24, 18, 21, 0, 12, 0, 0, 0, 0, 0, 13, 0, 16, 0, 29, 8, 0, 10, 15, 23, 0, 30, 6, 9, 20, 2, 26|
14, 24, 6, 30, 9, 17, 7, 0, 0, 27, 23, 18, 0, 0, 20, 0, 5, 15, 1, 0, 0, 0, 0, 28, 29, 0, 0, 21, 0, 4|
23, 0, 0, 1, 30, 25, 4, 5, 12, 0, 10, 19, 18, 0, 0, 0, 0, 3, 15, 0, 0, 0, 0, 7, 20, 28, 21, 0, 13, 9|
0, 0, 16, 10, 19, 0, 0, 3, 17, 28, 11, 9, 1, 29, 0, 0, 20, 4, 26, 0, 15, 23, 22, 0, 0, 12, 0, 0, 14, 0|
5, 0, 19, 0, 13, 28, 25, 0, 2, 0, 0, 0, 0, 18, 24, 22, 7, 0, 0, 0, 0, 17, 0, 14, 21, 0, 23, 12, 20, 27|
12, 23, 22, 0, 0, 20, 6, 0, 0, 29, 2, 16, 10, 15, 28, 1, 0, 21, 27, 0, 9, 0, 0, 19, 3, 0, 0, 0, 30, 0|
15, 0, 9, 25, 29, 1, 0, 0, 14, 11, 0, 0, 0, 0, 18, 24, 22, 0, 0, 0, 13, 0, 4, 12, 23, 16, 7, 0, 6, 21|
22, 3, 0, 15, 5, 23, 17, 0, 11, 20, 0, 0, 29, 25, 0, 0, 0, 6, 7, 8, 26, 0, 0, 10, 28, 9, 13, 0, 0, 0|
0, 10, 0, 0, 0, 0, 14, 24, 28, 9, 1, 0, 0, 5, 7, 0, 18, 0, 16, 6, 27, 19, 30, 2, 8, 0, 17, 0, 12, 0|
0, 19, 24, 14, 25, 0, 0, 6, 0, 4, 29, 0, 17, 8, 11, 13, 0, 0, 23, 20, 7, 16, 0, 1, 0, 15, 0, 5, 0, 0|
27, 28, 25, 26, 0, 0, 16, 0, 0, 0, 13, 0, 19, 4, 0, 21, 0, 11, 0, 7, 1, 0, 9, 0, 18, 24, 15, 14, 10, 0|
16, 0, 17, 0, 23, 0, 5, 22, 0, 0, 12, 13, 20, 0, 3, 10, 0, 25, 24, 15, 0, 8, 14, 0, 0, 0, 0, 27, 29, 0|
0, 0, 21, 0, 0, 10, 20, 7, 0, 0, 0, 17, 5, 0, 9, 0, 0, 30, 22, 1, 23, 13, 16, 25, 2, 0, 24, 29, 3, 0|
19, 18, 0, 20, 0, 0, 26, 15, 0, 0, 21, 30, 6, 23, 14, 0, 27, 12, 0, 3, 0, 0, 1, 9, 0, 25, 29, 0, 5, 0|];
